(set-info :smt-lib-version 2.6)
(set-info :category "crafted")
(set-logic QF_FFA)
(define-sort FF0 () (_ FiniteField 52435875175126190479447740508185965837690552500527637822603658699938581184513))
(declare-fun h () Bool)
(declare-fun e () Bool)
(declare-fun d () Bool)
(declare-fun b () Bool)
(declare-fun a () Bool)
(declare-fun g () Bool)
(declare-fun f () Bool)
(declare-fun c () Bool)
(declare-fun return_n0 () FF0)
(declare-fun mul_n72 () FF0)
(declare-fun mul_n123 () FF0)
(declare-fun mul_n122 () FF0)
(declare-fun mul_n76 () FF0)
(declare-fun mul_n121 () FF0)
(declare-fun mul_n77 () FF0)
(declare-fun mul_n120 () FF0)
(declare-fun mul_n116 () FF0)
(declare-fun mul_n119 () FF0)
(declare-fun mul_n95 () FF0)
(declare-fun mul_n118 () FF0)
(declare-fun mul_n103 () FF0)
(declare-fun mul_n117 () FF0)
(declare-fun mul_n14 () FF0)
(declare-fun mul_n12 () FF0)
(declare-fun g_n7 () FF0)
(declare-fun mul_n13 () FF0)
(declare-fun mul_n88 () FF0)
(declare-fun mul_n75 () FF0)
(declare-fun mul_n115 () FF0)
(declare-fun mul_n15 () FF0)
(declare-fun mul_n114 () FF0)
(declare-fun mul_n113 () FF0)
(declare-fun mul_n57 () FF0)
(declare-fun b_n6 () FF0)
(declare-fun mul_n41 () FF0)
(declare-fun mul_n55 () FF0)
(declare-fun mul_n58 () FF0)
(declare-fun mul_n66 () FF0)
(declare-fun mul_n67 () FF0)
(declare-fun mul_n112 () FF0)
(declare-fun mul_n85 () FF0)
(declare-fun mul_n111 () FF0)
(declare-fun mul_n65 () FF0)
(declare-fun mul_n110 () FF0)
(declare-fun mul_n50 () FF0)
(declare-fun mul_n109 () FF0)
(declare-fun mul_n22 () FF0)
(declare-fun mul_n108 () FF0)
(declare-fun mul_n107 () FF0)
(declare-fun mul_n63 () FF0)
(declare-fun mul_n96 () FF0)
(declare-fun mul_n106 () FF0)
(declare-fun mul_n46 () FF0)
(declare-fun mul_n105 () FF0)
(declare-fun mul_n104 () FF0)
(declare-fun mul_n97 () FF0)
(declare-fun mul_n64 () FF0)
(declare-fun mul_n23 () FF0)
(declare-fun f_n1 () FF0)
(declare-fun mul_n102 () FF0)
(declare-fun mul_n101 () FF0)
(declare-fun mul_n35 () FF0)
(declare-fun mul_n36 () FF0)
(declare-fun mul_n34 () FF0)
(declare-fun mul_n100 () FF0)
(declare-fun e_n2 () FF0)
(declare-fun mul_n99 () FF0)
(declare-fun mul_n98 () FF0)
(declare-fun mul_n27 () FF0)
(declare-fun mul_n52 () FF0)
(declare-fun mul_n10 () FF0)
(declare-fun mul_n94 () FF0)
(declare-fun mul_n38 () FF0)
(declare-fun mul_n93 () FF0)
(declare-fun mul_n92 () FF0)
(declare-fun d_n3 () FF0)
(declare-fun mul_n91 () FF0)
(declare-fun mul_n90 () FF0)
(declare-fun mul_n89 () FF0)
(declare-fun mul_n56 () FF0)
(declare-fun mul_n87 () FF0)
(declare-fun mul_n86 () FF0)
(declare-fun mul_n32 () FF0)
(declare-fun mul_n84 () FF0)
(declare-fun mul_n83 () FF0)
(declare-fun mul_n37 () FF0)
(declare-fun mul_n82 () FF0)
(declare-fun mul_n31 () FF0)
(declare-fun mul_n81 () FF0)
(declare-fun mul_n54 () FF0)
(declare-fun mul_n80 () FF0)
(declare-fun mul_n79 () FF0)
(declare-fun mul_n9 () FF0)
(declare-fun mul_n78 () FF0)
(declare-fun mul_n40 () FF0)
(declare-fun a_n8 () FF0)
(declare-fun mul_n11 () FF0)
(declare-fun mul_n74 () FF0)
(declare-fun mul_n73 () FF0)
(declare-fun mul_n71 () FF0)
(declare-fun mul_n70 () FF0)
(declare-fun mul_n69 () FF0)
(declare-fun mul_n68 () FF0)
(declare-fun mul_n62 () FF0)
(declare-fun mul_n53 () FF0)
(declare-fun mul_n61 () FF0)
(declare-fun mul_n28 () FF0)
(declare-fun mul_n60 () FF0)
(declare-fun mul_n59 () FF0)
(declare-fun h_n5 () FF0)
(declare-fun mul_n21 () FF0)
(declare-fun mul_n51 () FF0)
(declare-fun mul_n49 () FF0)
(declare-fun mul_n33 () FF0)
(declare-fun mul_n48 () FF0)
(declare-fun mul_n47 () FF0)
(declare-fun mul_n44 () FF0)
(declare-fun mul_n18 () FF0)
(declare-fun mul_n45 () FF0)
(declare-fun mul_n43 () FF0)
(declare-fun mul_n42 () FF0)
(declare-fun c_n4 () FF0)
(declare-fun mul_n39 () FF0)
(declare-fun mul_n30 () FF0)
(declare-fun mul_n29 () FF0)
(declare-fun mul_n26 () FF0)
(declare-fun mul_n25 () FF0)
(declare-fun mul_n24 () FF0)
(declare-fun mul_n20 () FF0)
(declare-fun mul_n19 () FF0)
(declare-fun mul_n17 () FF0)
(declare-fun mul_n16 () FF0)
(assert 
  (let ((let0 h))
  (let ((let1 e))
  (let ((let2 d))
  (let ((let3 (ite let0 let2 let1)))
  (let ((let4 (and let3 let0)))
  (let ((let5 b))
  (let ((let6 a))
  (let ((let7 (=> let6 let5)))
  (let ((let8 (or let6 let7)))
  (let ((let9 g))
  (let ((let10 f))
  (let ((let11 c))
  (let ((let12 (ite let11 let10 let9)))
  (let ((let13 (= let12 let8)))
  (let ((let14 (ite let12 let1 let13)))
  (let ((let15 (and let1 let7 let11 let14)))
  (let ((let16 (not let2)))
  (let ((let17 (or let4 let16 let15 let4)))
  (let ((let18 (not let14)))
  (let ((let19 (= let13 let18)))
  (let ((let20 (= let10 let5)))
  (let ((let21 (and let19 let20 let8 let7 let19)))
  (let ((let22 (and let21 let15)))
  (let ((let23 (or let0 let18 let14 let9)))
  (let ((let24 (or let23 let3)))
  (let ((let25 (ite let22 let24 let22)))
  (let ((let26 (and let11 let2)))
  (let ((let27 (= let26 let26)))
  (let ((let28 (= let27 let5)))
  (let ((let29 (ite let16 let28 let9)))
  (let ((let30 (ite let12 let23 let27)))
  (let ((let31 (or let26 let30 let11)))
  (let ((let32 (=> let20 let31)))
  (let ((let33 (or let32 let25 let25 let28)))
  (let ((let34 (and let3 let24 let15)))
  (let ((let35 (and let34 let33 let29 let25 let2)))
  (let ((let36 (or let9 let35 let17)))
  (let ((let37 (=> let22 let17)))
  (let ((let38 (ite let30 let17 let23)))
  (let ((let39 (ite let34 let38 let5)))
  (let ((let40 (or let30 let8)))
  (let ((let41 (ite let40 let0 let39)))
  (let ((let42 (= let32 let41)))
  (let ((let43 (and let42 let10 let37 let22 let37 let36)))
  (let ((let44 (=> let41 let27)))
  (let ((let45 (=> let20 let44)))
  (let ((let46 (not let42)))
  (let ((let47 (=> let38 let39)))
  (let ((let48 (= let47 let42)))
  (let ((let49 (or let41 let35 let48 let46 let45 let43)))
  (let ((let50 (not let49)))
  (let ((let51 (or let6 let21 let29 let7)))
  (let ((let52 (or let51 let13)))
  (let ((let53 (and let6 let12)))
  (let ((let54 (and let31 let31 let3 let36 let38 let23 let29 let10 let47)))
  (let ((let55 (not let4)))
  (let ((let56 (and let18 let24 let40 let32)))
  (let ((let57 (or let55 let40 let51 let56 let16 let42 let30 let55)))
  (let ((let58 (not let57)))
  (let ((let59 (ite let58 let14 let43)))
  (let ((let60 (not let59)))
  (let ((let61 (= let44 let58)))
  (let ((let62 (or let36 let21 let28 let1 let28)))
  (let ((let63 (and let62 let43)))
  (let ((let64 (=> let63 let20)))
  (let ((let65 (or let64 let61 let58 let34 let60 let54 let19 let35 let45 let54 let48 let49 let14 let51)))
  (let ((let66 (not let64)))
  (let ((let67 (not let13)))
  (let ((let68 (not let56)))
  (let ((let69 (and let68 let67 let66 let58 let65 let53 let52 let50 let50)))
  (let ((let70 return_n0))
  (let ((let71 (as ff1 FF0)))
  (let ((let72 (= let71 let70)))
  (let ((let73 (= let72 let69)))
  (let ((let74 (as ff0 FF0)))
  (let ((let75 (= let74 let70)))
  (let ((let76 (or let72 let75)))
  (let ((let77 (and let76 let73)))
  (let ((let78 mul_n72))
  (let ((let79 mul_n123))
  (let ((let80 (ff.mul let79 let78)))
  (let ((let81 (= let80 let70)))
  (let ((let82 mul_n122))
  (let ((let83 (ff.mul let82 let78)))
  (let ((let84 (= let83 let79)))
  (let ((let85 (as ff52435875175126190479447740508185965837690552500527637822603658699938581184512 FF0)))
  (let ((let86 mul_n76))
  (let ((let87 (ff.mul let86 let85)))
  (let ((let88 (ff.add let87 let71)))
  (let ((let89 mul_n121))
  (let ((let90 (ff.mul let89 let88)))
  (let ((let91 (= let90 let82)))
  (let ((let92 mul_n77))
  (let ((let93 mul_n120))
  (let ((let94 (ff.mul let93 let92)))
  (let ((let95 (= let94 let89)))
  (let ((let96 mul_n116))
  (let ((let97 (ff.mul let96 let85)))
  (let ((let98 (ff.add let97 let71)))
  (let ((let99 mul_n119))
  (let ((let100 (ff.mul let99 let98)))
  (let ((let101 (= let100 let93)))
  (let ((let102 mul_n95))
  (let ((let103 mul_n118))
  (let ((let104 (ff.mul let103 let102)))
  (let ((let105 (= let104 let99)))
  (let ((let106 mul_n103))
  (let ((let107 mul_n117))
  (let ((let108 (ff.mul let107 let106)))
  (let ((let109 (= let108 let103)))
  (let ((let110 mul_n14))
  (let ((let111 (ff.mul let110 let85)))
  (let ((let112 mul_n12))
  (let ((let113 (ff.mul let112 let85)))
  (let ((let114 g_n7))
  (let ((let115 mul_n13))
  (let ((let116 (ff.add let115 let114 let113 let111 let71)))
  (let ((let117 mul_n88))
  (let ((let118 (ff.mul let117 let85)))
  (let ((let119 (ff.add let118 let71)))
  (let ((let120 (ff.mul let119 let116)))
  (let ((let121 (= let120 let107)))
  (let ((let122 mul_n75))
  (let ((let123 mul_n115))
  (let ((let124 (ff.mul let123 let122)))
  (let ((let125 (= let124 let96)))
  (let ((let126 mul_n15))
  (let ((let127 (ff.mul let126 let85)))
  (let ((let128 (ff.add let115 let114 let127 let113 let111 let71)))
  (let ((let129 mul_n114))
  (let ((let130 (ff.mul let129 let128)))
  (let ((let131 (= let130 let123)))
  (let ((let132 mul_n113))
  (let ((let133 (ff.mul let132 let78)))
  (let ((let134 (= let133 let129)))
  (let ((let135 mul_n57))
  (let ((let136 (ff.mul let135 let85)))
  (let ((let137 b_n6))
  (let ((let138 (ff.mul let137 let85)))
  (let ((let139 mul_n41))
  (let ((let140 mul_n55))
  (let ((let141 (ff.mul let140 let85)))
  (let ((let142 mul_n58))
  (let ((let143 mul_n66))
  (let ((let144 (ff.mul let143 let85)))
  (let ((let145 mul_n67))
  (let ((let146 (ff.mul let145 let85)))
  (let ((let147 (ff.add let146 let144 let142 let141 let139 let138 let136 let71)))
  (let ((let148 mul_n112))
  (let ((let149 (ff.mul let148 let147)))
  (let ((let150 (= let149 let132)))
  (let ((let151 mul_n85))
  (let ((let152 (ff.mul let151 let85)))
  (let ((let153 (ff.add let152 let71)))
  (let ((let154 mul_n111))
  (let ((let155 (ff.mul let154 let153)))
  (let ((let156 (= let155 let148)))
  (let ((let157 mul_n65))
  (let ((let158 mul_n110))
  (let ((let159 (ff.mul let158 let157)))
  (let ((let160 (= let159 let154)))
  (let ((let161 mul_n50))
  (let ((let162 (ff.mul let161 let85)))
  (let ((let163 (ff.add let162 let71)))
  (let ((let164 mul_n109))
  (let ((let165 (ff.mul let164 let163)))
  (let ((let166 (= let165 let158)))
  (let ((let167 mul_n22))
  (let ((let168 (ff.mul let167 let85)))
  (let ((let169 (ff.add let168 let127 let71)))
  (let ((let170 mul_n108))
  (let ((let171 (ff.mul let170 let169)))
  (let ((let172 (= let171 let164)))
  (let ((let173 mul_n107))
  (let ((let174 (ff.mul let173 let153)))
  (let ((let175 (= let174 let170)))
  (let ((let176 mul_n63))
  (let ((let177 mul_n96))
  (let ((let178 (ff.add let177 let176)))
  (let ((let179 mul_n106))
  (let ((let180 (ff.mul let179 let178)))
  (let ((let181 (= let180 let173)))
  (let ((let182 mul_n46))
  (let ((let183 (ff.mul let182 let85)))
  (let ((let184 (ff.add let183 let71)))
  (let ((let185 mul_n105))
  (let ((let186 (ff.mul let185 let184)))
  (let ((let187 (= let186 let179)))
  (let ((let188 (ff.mul let102 let85)))
  (let ((let189 (ff.add let188 let71)))
  (let ((let190 mul_n104))
  (let ((let191 (ff.mul let190 let189)))
  (let ((let192 (= let191 let185)))
  (let ((let193 mul_n97))
  (let ((let194 (ff.mul let193 let85)))
  (let ((let195 mul_n64))
  (let ((let196 (ff.mul let195 let85)))
  (let ((let197 (ff.add let196 let194 let102 let71)))
  (let ((let198 (ff.mul let106 let197)))
  (let ((let199 (= let198 let190)))
  (let ((let200 mul_n23))
  (let ((let201 (ff.mul let200 let85)))
  (let ((let202 f_n1))
  (let ((let203 (ff.add let202 let137 let201)))
  (let ((let204 mul_n102))
  (let ((let205 (ff.mul let204 let203)))
  (let ((let206 (= let205 let106)))
  (let ((let207 mul_n101))
  (let ((let208 (ff.mul let207 let85)))
  (let ((let209 (ff.add let208 let71)))
  (let ((let210 (ff.mul let209 let176)))
  (let ((let211 (= let210 let204)))
  (let ((let212 mul_n35))
  (let ((let213 mul_n36))
  (let ((let214 (ff.mul let213 let85)))
  (let ((let215 (as ff52435875175126190479447740508185965837690552500527637822603658699938581184511 FF0)))
  (let ((let216 mul_n34))
  (let ((let217 (ff.mul let216 let215)))
  (let ((let218 (ff.add let217 let214 let137 let212 let71)))
  (let ((let219 mul_n100))
  (let ((let220 (ff.mul let219 let218)))
  (let ((let221 (= let220 let207)))
  (let ((let222 e_n2))
  (let ((let223 (ff.mul let222 let85)))
  (let ((let224 (ff.add let223 let71)))
  (let ((let225 mul_n99))
  (let ((let226 (ff.mul let225 let224)))
  (let ((let227 (= let226 let219)))
  (let ((let228 mul_n98))
  (let ((let229 (ff.mul let228 let218)))
  (let ((let230 (= let229 let225)))
  (let ((let231 mul_n27))
  (let ((let232 (ff.mul let231 let85)))
  (let ((let233 (ff.add let232 let71)))
  (let ((let234 mul_n52))
  (let ((let235 (ff.mul let234 let233)))
  (let ((let236 (= let235 let228)))
  (let ((let237 (as ff2 FF0)))
  (let ((let238 (ff.mul let195 let215)))
  (let ((let239 (ff.add let238 let237)))
  (let ((let240 (ff.mul let239 let102)))
  (let ((let241 (= let240 let193)))
  (let ((let242 (ff.mul let176 let85)))
  (let ((let243 (ff.mul let114 let85)))
  (let ((let244 (ff.mul let115 let85)))
  (let ((let245 (ff.add let244 let243 let126 let112 let110 let242)))
  (let ((let246 (ff.mul let102 let245)))
  (let ((let247 (= let246 let177)))
  (let ((let248 mul_n10))
  (let ((let249 mul_n94))
  (let ((let250 (ff.mul let249 let248)))
  (let ((let251 (= let250 let102)))
  (let ((let252 (ff.mul let212 let85)))
  (let ((let253 mul_n38))
  (let ((let254 (ff.mul let253 let85)))
  (let ((let255 (ff.mul let216 let237)))
  (let ((let256 (ff.add let255 let254 let252)))
  (let ((let257 mul_n93))
  (let ((let258 (ff.mul let257 let256)))
  (let ((let259 (= let258 let249)))
  (let ((let260 (ff.mul let139 let85)))
  (let ((let261 (ff.mul let142 let85)))
  (let ((let262 (ff.add let261 let140 let260 let135 let137 let71)))
  (let ((let263 mul_n92))
  (let ((let264 (ff.mul let263 let262)))
  (let ((let265 (= let264 let257)))
  (let ((let266 d_n3))
  (let ((let267 mul_n91))
  (let ((let268 (ff.mul let267 let266)))
  (let ((let269 (= let268 let263)))
  (let ((let270 mul_n90))
  (let ((let271 (ff.mul let270 let119)))
  (let ((let272 (= let271 let267)))
  (let ((let273 mul_n89))
  (let ((let274 (ff.mul let273 let122)))
  (let ((let275 (= let274 let270)))
  (let ((let276 mul_n56))
  (let ((let277 (ff.mul let248 let276)))
  (let ((let278 (= let277 let273)))
  (let ((let279 (ff.add let260 let71)))
  (let ((let280 mul_n87))
  (let ((let281 (ff.mul let280 let279)))
  (let ((let282 (= let281 let117)))
  (let ((let283 (ff.mul let276 let85)))
  (let ((let284 (ff.add let283 let71)))
  (let ((let285 mul_n86))
  (let ((let286 (ff.mul let285 let284)))
  (let ((let287 (= let286 let280)))
  (let ((let288 mul_n32))
  (let ((let289 (ff.mul let288 let85)))
  (let ((let290 (ff.add let289 let71)))
  (let ((let291 (ff.mul let128 let290)))
  (let ((let292 (= let291 let285)))
  (let ((let293 (ff.add let144 let71)))
  (let ((let294 mul_n84))
  (let ((let295 (ff.mul let294 let293)))
  (let ((let296 (= let295 let151)))
  (let ((let297 mul_n83))
  (let ((let298 (ff.mul let297 let202)))
  (let ((let299 (= let298 let294)))
  (let ((let300 mul_n37))
  (let ((let301 (ff.add let300 let114)))
  (let ((let302 mul_n82))
  (let ((let303 (ff.mul let302 let301)))
  (let ((let304 (= let303 let297)))
  (let ((let305 mul_n31))
  (let ((let306 (ff.mul let305 let85)))
  (let ((let307 (ff.add let306 let71)))
  (let ((let308 mul_n81))
  (let ((let309 (ff.mul let308 let307)))
  (let ((let310 (= let309 let302)))
  (let ((let311 mul_n54))
  (let ((let312 (ff.add let311 let306 let71)))
  (let ((let313 mul_n80))
  (let ((let314 (ff.mul let313 let312)))
  (let ((let315 (= let314 let308)))
  (let ((let316 (ff.mul let234 let85)))
  (let ((let317 (ff.add let316 let71)))
  (let ((let318 mul_n79))
  (let ((let319 (ff.mul let318 let317)))
  (let ((let320 (= let319 let313)))
  (let ((let321 mul_n9))
  (let ((let322 (ff.add let321 let222)))
  (let ((let323 mul_n78))
  (let ((let324 (ff.mul let323 let322)))
  (let ((let325 (= let324 let318)))
  (let ((let326 mul_n40))
  (let ((let327 (ff.mul let326 let85)))
  (let ((let328 (ff.add let327 let71)))
  (let ((let329 (ff.mul let328 let328)))
  (let ((let330 (= let329 let323)))
  (let ((let331 (ff.add let115 let114)))
  (let ((let332 a_n8))
  (let ((let333 (ff.mul let332 let331)))
  (let ((let334 (= let333 let92)))
  (let ((let335 (ff.mul let122 let116)))
  (let ((let336 (= let335 let86)))
  (let ((let337 mul_n11))
  (let ((let338 mul_n74))
  (let ((let339 (ff.mul let338 let337)))
  (let ((let340 (= let339 let122)))
  (let ((let341 (ff.mul let300 let85)))
  (let ((let342 (ff.add let341 let243 let71)))
  (let ((let343 mul_n73))
  (let ((let344 (ff.mul let343 let342)))
  (let ((let345 (= let344 let338)))
  (let ((let346 (ff.mul let332 let85)))
  (let ((let347 (ff.add let346 let71)))
  (let ((let348 (ff.mul let347 let233)))
  (let ((let349 (= let348 let343)))
  (let ((let350 (ff.add let242 let71)))
  (let ((let351 mul_n71))
  (let ((let352 (ff.mul let351 let350)))
  (let ((let353 (= let352 let78)))
  (let ((let354 mul_n70))
  (let ((let355 (ff.mul let354 let157)))
  (let ((let356 (= let355 let351)))
  (let ((let357 (ff.add let142 let141 let139 let136 let138)))
  (let ((let358 mul_n69))
  (let ((let359 (ff.mul let358 let357)))
  (let ((let360 (= let359 let354)))
  (let ((let361 mul_n68))
  (let ((let362 (ff.mul let361 let147)))
  (let ((let363 (= let362 let358)))
  (let ((let364 (ff.add let136 let138 let141 let71)))
  (let ((let365 (ff.mul let364 let163)))
  (let ((let366 (= let365 let361)))
  (let ((let367 (ff.mul let143 let215)))
  (let ((let368 (ff.add let367 let237)))
  (let ((let369 (ff.mul let368 let357)))
  (let ((let370 (= let369 let145)))
  (let ((let371 (ff.add let138 let141 let71)))
  (let ((let372 (ff.mul let312 let371)))
  (let ((let373 (= let372 let143)))
  (let ((let374 (ff.add let255 let252)))
  (let ((let375 (ff.add let135 let137 let140)))
  (let ((let376 (ff.mul let375 let374)))
  (let ((let377 (= let376 let195)))
  (let ((let378 mul_n62))
  (let ((let379 (ff.mul let378 let317)))
  (let ((let380 (= let379 let176)))
  (let ((let381 mul_n53))
  (let ((let382 (ff.mul let381 let85)))
  (let ((let383 (ff.add let382 let71)))
  (let ((let384 mul_n61))
  (let ((let385 (ff.mul let384 let383)))
  (let ((let386 (= let385 let378)))
  (let ((let387 mul_n28))
  (let ((let388 mul_n60))
  (let ((let389 (ff.mul let388 let387)))
  (let ((let390 (= let389 let384)))
  (let ((let391 mul_n59))
  (let ((let392 (ff.mul let391 let383)))
  (let ((let393 (= let392 let388)))
  (let ((let394 (ff.mul let357 let202)))
  (let ((let395 (= let394 let391)))
  (let ((let396 (ff.mul let139 let215)))
  (let ((let397 (ff.add let396 let237)))
  (let ((let398 (ff.mul let397 let375)))
  (let ((let399 (= let398 let142)))
  (let ((let400 h_n5))
  (let ((let401 (ff.add let400 let138 let141)))
  (let ((let402 (ff.mul let284 let401)))
  (let ((let403 (= let402 let135)))
  (let ((let404 (ff.mul let256 let112)))
  (let ((let405 (= let404 let276)))
  (let ((let406 (ff.add let138 let311 let306 let71)))
  (let ((let407 (ff.mul let182 let406)))
  (let ((let408 (= let407 let140)))
  (let ((let409 mul_n21))
  (let ((let410 (ff.mul let409 let85)))
  (let ((let411 (ff.add let410 let305)))
  (let ((let412 (ff.add let212 let253 let217 let71)))
  (let ((let413 (ff.mul let412 let411)))
  (let ((let414 (= let413 let311)))
  (let ((let415 (ff.mul let387 let409)))
  (let ((let416 (= let415 let381)))
  (let ((let417 mul_n51))
  (let ((let418 (ff.mul let417 let409)))
  (let ((let419 (= let418 let234)))
  (let ((let420 (ff.add let243 let71)))
  (let ((let421 (ff.mul let420 let163)))
  (let ((let422 (= let421 let417)))
  (let ((let423 mul_n49))
  (let ((let424 (ff.mul let423 let266)))
  (let ((let425 (= let424 let161)))
  (let ((let426 mul_n33))
  (let ((let427 (ff.add let387 let426)))
  (let ((let428 mul_n48))
  (let ((let429 (ff.mul let428 let427)))
  (let ((let430 (= let429 let423)))
  (let ((let431 mul_n47))
  (let ((let432 (ff.mul let431 let301)))
  (let ((let433 (= let432 let428)))
  (let ((let434 mul_n44))
  (let ((let435 (ff.mul let434 let85)))
  (let ((let436 (ff.add let435 let71)))
  (let ((let437 (ff.mul let182 let436)))
  (let ((let438 (= let437 let431)))
  (let ((let439 mul_n18))
  (let ((let440 mul_n45))
  (let ((let441 (ff.mul let440 let439)))
  (let ((let442 (= let441 let182)))
  (let ((let443 (ff.mul let322 let290)))
  (let ((let444 (= let443 let440)))
  (let ((let445 mul_n43))
  (let ((let446 (ff.mul let445 let218)))
  (let ((let447 (= let446 let434)))
  (let ((let448 (ff.mul let426 let85)))
  (let ((let449 (ff.mul let387 let85)))
  (let ((let450 (ff.add let449 let448 let71)))
  (let ((let451 mul_n42))
  (let ((let452 (ff.mul let451 let450)))
  (let ((let453 (= let452 let445)))
  (let ((let454 (ff.mul let139 let450)))
  (let ((let455 (= let454 let451)))
  (let ((let456 (ff.mul let202 let85)))
  (let ((let457 (ff.add let456 let138 let200 let71)))
  (let ((let458 (ff.mul let457 let326)))
  (let ((let459 (= let458 let139)))
  (let ((let460 c_n4))
  (let ((let461 (ff.mul let460 let85)))
  (let ((let462 (ff.add let461 let71)))
  (let ((let463 mul_n39))
  (let ((let464 (ff.mul let463 let462)))
  (let ((let465 (= let464 let326)))
  (let ((let466 (ff.mul let216 let85)))
  (let ((let467 (ff.add let466 let71)))
  (let ((let468 (ff.mul let467 let256)))
  (let ((let469 (= let468 let463)))
  (let ((let470 (ff.add let252 let255 let306)))
  (let ((let471 (ff.mul let331 let470)))
  (let ((let472 (= let471 let253)))
  (let ((let473 (ff.add let255 let243 let213 let138 let252)))
  (let ((let474 (ff.mul let266 let85)))
  (let ((let475 (ff.add let474 let71)))
  (let ((let476 (ff.mul let475 let473)))
  (let ((let477 (= let476 let300)))
  (let ((let478 (ff.mul let212 let237)))
  (let ((let479 (as ff52435875175126190479447740508185965837690552500527637822603658699938581184509 FF0)))
  (let ((let480 (ff.mul let216 let479)))
  (let ((let481 (ff.add let480 let478 let237)))
  (let ((let482 (ff.mul let481 let137)))
  (let ((let483 (= let482 let213)))
  (let ((let484 (ff.mul let255 let216)))
  (let ((let485 (= let484 let212)))
  (let ((let486 (ff.mul let460 let266)))
  (let ((let487 (= let486 let216)))
  (let ((let488 (ff.add let289 let449 let71)))
  (let ((let489 (ff.mul let387 let488)))
  (let ((let490 (= let489 let426)))
  (let ((let491 (ff.mul let321 let85)))
  (let ((let492 (ff.add let491 let223 let71)))
  (let ((let493 (ff.mul let305 let492)))
  (let ((let494 (= let493 let288)))
  (let ((let495 mul_n30))
  (let ((let496 (ff.mul let495 let420)))
  (let ((let497 (= let496 let305)))
  (let ((let498 mul_n29))
  (let ((let499 (ff.mul let498 let128)))
  (let ((let500 (= let499 let495)))
  (let ((let501 (ff.add let244 let243 let126 let112 let110)))
  (let ((let502 (ff.mul let400 let85)))
  (let ((let503 (ff.add let502 let71)))
  (let ((let504 (ff.mul let503 let501)))
  (let ((let505 (= let504 let498)))
  (let ((let506 (ff.mul let231 let439)))
  (let ((let507 (= let506 let387)))
  (let ((let508 (ff.add let126 let167)))
  (let ((let509 mul_n26))
  (let ((let510 (ff.mul let509 let508)))
  (let ((let511 (= let510 let231)))
  (let ((let512 (ff.mul let337 let85)))
  (let ((let513 (ff.add let512 let71)))
  (let ((let514 mul_n25))
  (let ((let515 (ff.mul let514 let513)))
  (let ((let516 (= let515 let509)))
  (let ((let517 (ff.add let113 let71)))
  (let ((let518 mul_n24))
  (let ((let519 (ff.mul let518 let517)))
  (let ((let520 (= let519 let514)))
  (let ((let521 (ff.mul let508 let457)))
  (let ((let522 (= let521 let518)))
  (let ((let523 (ff.mul let202 let237)))
  (let ((let524 (ff.mul let523 let137)))
  (let ((let525 (= let524 let200)))
  (let ((let526 (ff.mul let110 let237)))
  (let ((let527 (ff.mul let112 let237)))
  (let ((let528 (ff.mul let114 let215)))
  (let ((let529 (ff.mul let115 let215)))
  (let ((let530 (ff.add let529 let528 let527 let526)))
  (let ((let531 (ff.mul let530 let128)))
  (let ((let532 (= let531 let167)))
  (let ((let533 (ff.mul let248 let85)))
  (let ((let534 (ff.add let533 let71)))
  (let ((let535 mul_n20))
  (let ((let536 (ff.mul let535 let534)))
  (let ((let537 (= let536 let409)))
  (let ((let538 (ff.mul let439 let85)))
  (let ((let539 (ff.add let538 let71)))
  (let ((let540 mul_n19))
  (let ((let541 (ff.mul let540 let539)))
  (let ((let542 (= let541 let535)))
  (let ((let543 (ff.mul let534 let266)))
  (let ((let544 (= let543 let540)))
  (let ((let545 mul_n17))
  (let ((let546 (ff.mul let545 let501)))
  (let ((let547 (= let546 let439)))
  (let ((let548 mul_n16))
  (let ((let549 (ff.mul let548 let460)))
  (let ((let550 (= let549 let545)))
  (let ((let551 (ff.mul let222 let513)))
  (let ((let552 (= let551 let548)))
  (let ((let553 (ff.add let115 let222 let114 let113 let111)))
  (let ((let554 (ff.mul let331 let553)))
  (let ((let555 (= let554 let126)))
  (let ((let556 (ff.mul let114 let237)))
  (let ((let557 (ff.mul let115 let237)))
  (let ((let558 (ff.add let557 let556)))
  (let ((let559 (ff.mul let558 let517)))
  (let ((let560 (= let559 let110)))
  (let ((let561 (ff.add let202 let243)))
  (let ((let562 (ff.mul let460 let561)))
  (let ((let563 (= let562 let115)))
  (let ((let564 (ff.mul let347 let337)))
  (let ((let565 (= let564 let112)))
  (let ((let566 (ff.add let138 let71)))
  (let ((let567 (ff.mul let332 let566)))
  (let ((let568 (= let567 let337)))
  (let ((let569 (ff.mul let322 let400)))
  (let ((let570 (= let569 let248)))
  (let ((let571 (ff.add let223 let266)))
  (let ((let572 (ff.mul let400 let571)))
  (let ((let573 (= let572 let321)))
  (let ((let574 (and let573 let570 let568 let565 let563 let560 let555 let552 let550 let547 let544 let542 let537 let532 let525 let522 let520 let516 let511 let507 let505 let500 let497 let494 let490 let487 let485 let483 let477 let472 let469 let465 let459 let455 let453 let447 let444 let442 let438 let433 let430 let425 let422 let419 let416 let414 let408 let405 let403 let399 let395 let393 let390 let386 let380 let377 let373 let370 let366 let363 let360 let356 let353 let349 let345 let340 let336 let334 let330 let325 let320 let315 let310 let304 let299 let296 let292 let287 let282 let278 let275 let272 let269 let265 let259 let251 let247 let241 let236 let230 let227 let221 let211 let206 let199 let192 let187 let181 let175 let172 let166 let160 let156 let150 let134 let131 let125 let121 let109 let105 let101 let95 let91 let84 let81)))
  (let ((let575 (ite let11 let71 let74)))
  (let ((let576 (= let460 let575)))
  (let ((let577 (ite let9 let71 let74)))
  (let ((let578 (= let114 let577)))
  (let ((let579 (ite let5 let71 let74)))
  (let ((let580 (= let137 let579)))
  (let ((let581 (ite let2 let71 let74)))
  (let ((let582 (= let266 let581)))
  (let ((let583 (ite let6 let71 let74)))
  (let ((let584 (= let332 let583)))
  (let ((let585 (ite let0 let71 let74)))
  (let ((let586 (= let400 let585)))
  (let ((let587 (ite let10 let71 let74)))
  (let ((let588 (= let202 let587)))
  (let ((let589 (ite let1 let71 let74)))
  (let ((let590 (= let222 let589)))
  (let ((let591 (and let590 let588 let586 let584 let582 let580 let578 let576)))
  (let ((let592 (and let591 let574)))
  (let ((let593 (=> let592 let77)))
  (let ((let594 (not let593)))
  let594
)))))))))))))))))))))))))))))))))))))))))))))))))))))))))))))))))))))))))))))))))))))))))))))))))))))))))))))))))))))))))))))))))))))))))))))))))))))))))))))))))))))))))))))))))))))))))))))))))))))))))))))))))))))))))))))))))))))))))))))))))))))))))))))))))))))))))))))))))))))))))))))))))))))))))))))))))))))))))))))))))))))))))))))))))))))))))))))))))))))))))))))))))))))))))))))))))))))))))))))))))))))))))))))))))))))))))))))))))))))))))))))))))))))))))))))))))))))))))))))))))))))))))))))))))))))))))))))))))))))))))))))))))))))))))))))))))))))))))))))))))))))))))))))))))))))))))))))))))))
)
(check-sat)
